c File: flat300_26_0.col
c
c SOURCE: Joseph Culberson (joe@cs.ualberta.ca)
c DESCRIPTION: Quasi-random coloring problem
c              generated with flatness = 0
c                             probability = 0.500
c                             known coloring = 26
c                             random seed = 200191231
c              Creation Date:  Mon Sep 19 08:23:20 1994
p edge 5 15
e 1 2
e 1 3
e 1 4
e 2 3
e 2 5
e 3 2
e 3 4
e 3 5
e 4 1
e 4 2
e 4 5
e 5 1
e 5 2
e 5 3
e 5 4
